NAME : pairopt.-194905.tour
COMMENT : Length = -194905
COMMENT : Found by LKH-3 [Keld Helsgaun] Tue Mar  4 23:54:44 2025
TYPE : TOUR
DIMENSION : 25
TOUR_SECTION
1
3
23
10
9
6
7
8
11
24
25
2
12
4
5
13
19
14
16
18
15
17
20
21
22
-1
EOF
